183
0 153 164 88 137 127 125 139 174 22 
25 17 126 56 95 24 105 20 102 63 
111 157 8 145 68 66 4 135 43 90 
53 83 65 93 49 113 15 36 98 112 
173 154 150 5 175 114 2 33 3 108 
136 168 165 16 59 110 79 100 71 159 
97 128 129 14 99 94 69 58 152 21 
30 45 149 34 48 179 96 87 23 130 
39 117 107 64 144 70 44 54 51 75 
122 84 26 141 121 115 6 12 123 172 
120 143 10 77 161 109 103 72 81 50 
80 41 67 11 28 42 118 104 132 170 
166 76 92 89 91 82 162 124 177 167 
116 182 40 151 47 163 55 176 32 13 
61 171 29 74 134 178 78 155 7 62 
1 140 156 106 131 101 9 35 37 169 
158 19 52 142 27 38 148 160 180 18 
147 60 57 46 85 31 181 133 86 146 
73 119 138 
